200
100
99
99
98
97
97
97
97
96
96
96
95
95
93
93
92
92
90
89
88
88
88
88
87
87
86
86
86
86
86
86
85
84
83
83
83
82
82
82
81
81
81
80
80
80
80
78
77
76
76
74
73
72
71
71
71
70
70
70
70
69
69
69
69
67
66
66
65
65
64
63
63
63
62
62
62
61
61
61
61
59
58
58
56
56
54
52
52
51
51
51
50
50
50
50
50
49
49
48
48
47
47
45
45
44
44
44
44
44
43
42
42
42
42
42
41
39
38
38
38
37
36
36
36
36
35
35
35
34
33
33
32
31
31
31
31
31
31
30
30
29
29
28
28
28
27
27
27
26
25
25
25
24
24
23
23
23
22
21
21
21
20
20
20
19
19
17
17
17
17
16
15
15
15
14
14
14
14
13
11
11
10
10
10
9
9
8
8
8
8
7
7
6
6
4
3
3
2
1
1
1
